1000 1728
1 2 3 4 5
0 6 7 8 9 10 11 12 13 14 15 16 17 18 19 20 21 22 23 24 25 26 27 28 29 30 31 32 33 34 35 36 37 38 39 40 41 42 43 44 45 46 47 48 49 50 51 52 53 54 55 56 57 58 59 60 61 62 63 64 65 66 67 68 69 70 71 72 73 74 75 76 77 78 79 80 81 82 83 84 85 86 87
0 5 12 88 89 90 91 92 93 94
0 95 96 97 98 99 100 101 102 103 104 105 106 107 108 109 110 111 112 113 114 115 116 117 118 119 120 121 122 123 124 125 126 127 128 129 130 131 132 133 134 135 136 137 138 139 140 141 142 143 144 145 146 147 148 149 150 151 152 153 154 155 156 157 158 159 160 161 162 163 164 165 166 167 168 169 170 171 172 173 174 175 176 177 178 179 180 181 182 183 184 185 186 187 188 189 190 191 192 193 194 195 196 197 198 199 200 201 202 203 204 205 206 207 208 209 210 211 212 213 214 215 216 217 218 219 220 221 222 223 224 225 226 227 228 229 230 231 232 233 234 235 236 237 238 239 240 241 242 243 244 245 246 247 248 249 250 251 252 253 254 255 256 257 258 259 260 261 262 263 264 265 266 267 268 269 270 271 272 273 274 275 276 277 278 279 280 281 282 283 284 285 286 287 288 289 290 291 292 293 294 295 296 297 298 299 300 301 302 303 304 305 306 307 308 309 310 311 312 313 314 315 316 317 318 319 320 321 322 323 324 325 326 327 328 329 330 331 332 333 334 335 336 337 338 339 340 341 342 343 344 345 346 347 348 349 350 351 352 353 354 355 356 357 358 359 360 361 362 363 364 365 366 367 368 369 370 371 372 373 374 375 376 377 378 379 380 381 382 383 384 385 386 387 388 389 390 391 392 393 394 395 396 397 398 399 400 401 402 403 404 405 406 407 408 409 410 411 412 413 414 415 416 417 418 419 420 421 422 423 424 425 426 427 428 429 430 431 432 433 434 435 436 437 438 439 440 441 442 443 444 445 446 447 448 449 450 451 452 453 454 455 456 457 458 459 460 461 462 463 464 465 466 467 468 469 470 471 472 473 474 475 476 477 478 479 480 481 482 483 484 485 486 487 488 489 490 491 492 493 494 495 496 497 498 499 500 501 502 503 504 505 506 507 508 509 510 511 512 513 514 515 516 517 518 519 520 521 522 523 524 525 526 527 528 529 530 531 532 533 534 535 536 537 538 539 540 541 542 543 544 545 546 547 548 549 550 551 552 553 554 555 556 557 558 559 560 561 562 563 564 565 566 567 568 569 570 571 572 573 574 575 576 577 578 579 580 581 582 583 584 585 586 587 588 589 590 591 592 593 594 595 596 597 598 599 600 601 602 603 604 605 606 607 608 609 610 611 612 613 614 615 616 617 618 619 620 621 622 623 624 625 626 627 628 629 630 631 632 633 634 635 636 637 638 639 640 641 642 643 644 645 646 647 648 649 650 651 652 653 654 655 656 657 658 659 660 661 662 663 664 665 666 667 668 669 670 671 672 673 674 675 676 677 678 679 680 681 682 683 684 685 686 687 688 689 690 691 692 693 694 695 696 697 698 699 700 701 702 703 704 705 706 707 708 709 710 711 712 713 714 715 716 717 718 719 720 721 722 723 724 725 726 727 728 729 730 731 732 733 734 735 736 737 738 739 740 741 742 743 744 745 746 747 748 749 750 751 752 753 754 755 756 757 758 759 760 761 762 763 764 765 766 767 768 769 770 771 772 773 774 775 776 777 778 779 780 781 782 783 784 785 786 787 788 789 790 791 792 793 794 795 796 797 798 799 800 801 802 803 804 805 806 807 808 809 810 811 812 813 814 815 816 817 818 819 820 821 822 823 824 825 826 827 828 829 830 831 832 833 834 835 836 837 838 839 840 841 842 843 844 845 846 847 848 849 850 851 852 853 854 855 856 857 858 859 860 861 862 863 864 865 866 867 868 869 870 871 872 873 874 875 876 877 878 879 880 881 882 883 884 885 886 887 888 889 890 891 892 893 894 895 896 897 898 899 900 901 902 903 904 905 906 907 908 909 910 911 912 913 914 915 916 917 918 919 920 921 922 923 924 925 926 927 928 929 930 931 932 933 934 935 936 937 938 939 940 941 942 943 944 945 946 947 948 949 950 951 952 953 954 955 956 957 958 959 960 961 962 963 964 965 966 967 968 969 970 971 972 973 974 975 976 977 978 979 980 981 982 983 984 985 986 987 988 989 990 991 992 993 994 995 996 997 998 999
0
0 2 12 91 155
1 11 37 52 60 73 75 189
1 38 56 68
1 14
1 10 23 26 34 38 58 63 70 72 77 83 86
1 9 23 25 34 35 49 63
1 6 15 28 30 37 54 60 71 73 79 84
1 2 5 23 42 53 83 90 91 92
1
1 8
1 11 28 69 79 84
1
1
1 20 22 32 36 43 51 52 54 65 67 69 75 79
1 32 37 54 57 65
1 18 27 43 51 67
1 23 26 29 34 58 64 70 72 77 80 82 85
1 18 24 27 36 59 65 75
1 9 10 12 21 25 26 29 34 35 38 40 42 45 46 58 63 64 68 70 72 77 80 82 85 86 87 92
1 22 27 51 67 75
1 10 23 26 35 49 63 87
1 9 21 23 25 29 34 38 58 63 64 70 72 77 80 82 85 86 87
1 20 22 24 51 59 67 75
1 11 15 30 37 47 50 52 54 67 79 84
1 21 23 26 34 42 56 58 63 70 72 77 82 85 87
1 11 28 47 52 65 69 71 79 84
1 49 53 83
1 18 19 37 50 54 60 65
1 45
1 9 10 21 23 26 29 35 38 39 40 42 45 49 56 58 63 64 66 68 70 72 77 82 86 87 92
1 10 23 25 34 38 45 92
1 18 22 51 65 67 75
1 6 11 19 28 32 50 52 54 60 67 71 73 75 84
1 7 9 23 26 34 35 39 45 46 49 56 58 64 68 70 72 77 82 83 155
1 34 38 46
1 23 34
1
1 12 23 29 34 58 63 77 86
1 18 20 51 52 65 67 69 75
1
1 23 33 34 35 38 76 77 119 237
1 23 38 39 49 64 68 77 82
1 28 30 65 69 79
1
1 10 25 31 34 38 46 68
1 28 32 37 71 73 79 84
1 18 20 24 27 36 43 59 65 69 75 79
1 6 18 28 30 37 43 65 79
1 12 31 91
1 11 18 19 28 32 37 60 84
1
1 7 29 34 38 68
1 19 84
1 9 21 23 26 29 34 38 42 63 64 70 72 77 82 85 86
1 22 27 51 75
1 6 11 32 37 54 73
1
1
1 9 10 23 25 26 29 34 42 58 68 77 87
1 21 23 26 34 38 46 58 77 80 82 85
1 18 19 22 30 32 36 43 47 51 52 67 69 71 75 79
1 34
1 18 20 24 27 28 36 37 43 65 69 75
1 7 23 34 38 46 49 56 63 155
1 15 18 30 43 47 51 65 67 71
1 9 21 23 26 29 34 38 58 80 82 85 86 140
1 11 30 37 50 65 69 79
1 9 21 23 26 29 34 38 58
1 6 11 37 50 60
1
1 6 18 22 24 27 36 37 43 51 59 65 67 323
1 45
1 9 21 23 26 29 34 38 42 45 46 58 63 64 82 86
1 104
1 11 15 18 28 30 47 50 51 52 65 71
1 21 23 26 64 70 82 85
1
1 21 23 26 29 34 38 46 58 64 70 77 80
1 9 12 31 38 91 155 553
1 11 15 28 30 37 50 54 57
1 21 23 26 29 58 64 70 80
1 9 23 26 34 42 58 70 77
1 23 25 26 29 34 63 92
2 543
2 92
2 12 91 94 155 490
2 5 12 53 83 90
2 12 23 34 35 87 89 93
2 92
2 90
3
3
3
3 554
3
3 690 940 962
3
3
3
3 78
3 234 959
3
3 271
3 112 121 204 435 548 549 721 850 866
3 702 854
3
3 786
3 108 121 169 204 214 348 462 548 549 601 734 850
3 379
3
3 362 907
3
3
3
3 45
3 329
3 108 112 392 734
3
3 778
3 736
3 370 609
3 502
3
3
3 330
3
3 886
3
3
3 524
3 270 906
3 378 593 808
3
3 690 940 962
3 235
3 70 204
3 204
3 425
3
3 824 847
3 969
3 197
3
3
3 811 923
3
3
3 263
3 346 757 875
3 602 652 751
3 5 38 68 83 90
3 894
3 721
3
3 175
3 837
3 522
3 204
3
3
3
3 321
3 222 300 328 964
3
3 112 435 548 549 734 849 866 869
3 263
3 846
3 204
3
3 899
3 159 279 602 659 835
3 374 482 583 978
3 190 638
3
3
3 513 935
3
3
3
3
3
3
3 566
3
3 6 944
3 177 202 259 710
3 808
3
3 602
3 367 605
3
3 217 454 460 494 549
3 146
3
3
3
3
3 190 653 701 791 878
3
3 108 112 140 141 162 172 214 256 348 407 463 542 549 664 683 692 877
3 543 875
3
3
3 472 484
3
3
3
3 856
3 864
3 112 204 714
3
3
3 196
3
3
3
3 493 525
3 167 300 328
3
3 470
3
3
3 924
3 331 415 468 690 910 913
3
3
3
3
3
3 105
3 139 472
3
3 45 267 472 484
3
3
3 842
3 316 317 516
3 761
3
3
3
3
3 316
3
3 432
3
3
3
3
3 615
3
3 204
3
3
3 190 517
3
3 648
3
3 152 170 422
3
3
3
3 237
3 373
3
3 135 643 804 812
3 107
3
3 643
3 566
3 737
3
3
3 544
3 175 320 602 835
3
3
3
3 976
3
3
3
3
3
3
3 968
3 304 443 889
3
3
3
3 323 566 868
3
3
3 525
3
3 167 222
3 404
3
3 894
3 291 443
3
3 551 754
3
3 480
3 429
3
3
3
3
3
3
3 241 247 317 516
3 241 316 516
3
3
3 279 602 835
3 166 633
3
3 75 295 566 868
3
3
3
3 639
3 167 222
3 120 380
3 129
3 228
3
3 567
3 422
3 894
3
3
3
3
3
3 399 434
3
3 421
3 801
3
3 153 600
3 894
3 112 204 601 707 721 734
3 493 642
3
3 894
3
3
3 751 839
3
3
3 774
3
3 927
3
3
3 115 907
3 631
3 643
3
3
3 194 633
3
3 722
3 125 609
3 965
3 573 966
3 268
3 176 583
3
3
3
3 136
3 113
3 329
3
3
3
3
3
3
3
3
3
3 547
3
3 121 393 549 850
3 392 721
3
3
3
3 665
3 842
3 341 456 893 915
3
3 819
3
3
3 301 557 685 891
3
3
3 204 463 500 830 881
3
3
3
3
3 450 608
3
3 789
3 228 540 889
3
3
3
3 468 566
3 839
3 343 656 700
3 263 334
3 894
3
3 142 511
3 700
3
3
3 309 812
3
3
3 249 476
3
3 341
3 108 169 601 734 866
3
3
3
3
3 541
3
3
3 291 304
3
3
3
3 630 884
3
3
3 412
3
3
3 920
3 196
3 823
3 399 745
3 493
3
3 609 670
3 196
3
3 112 848
3 204 407
3 778
3 591
3 529
3
3 228 419 566 627 669 962
3
3 224
3
3 208 235 237 484
3
3
3 603 824
3 432 958
3 840
3
3
3 308
3
3 176 978
3
3 208 237 472
3 562
3 879
3
3
3
3 90
3
3
3 221 349 457 831
3 196
3
3
3
3
3
3 407
3
3 126
3 567
3
3
3 566
3
3 600
3 836
3 525
3 425
3 782 800
3 180
3
3
3 241 316 317 881
3 259
3 548 721
3
3
3
3 161 594 785
3
3 134 851 970
3 221 298 510
3
3
3 730
3 466
3
3
3
3
3
3
3
3
3
3 699
3 415
3 440 789
3 204
3 88 205 652 875
3 278
3
3 603
3 390
3 108 112 169 518 549 866
3 108 112 169 196 204 392 548 850 866
3 552
3 306
3 550
3 83
3 98
3
3
3 404 779
3 860
3 694
3 808
3
3 485
3
3 613
3
3 187 274 295 323 419 468 506 690 868
3 333 503
3
3
3
3
3
3 372 837 966
3
3
3
3
3 727
3 916
3
3 809
3
3 176 374
3
3
3 850
3 599
3
3
3 638
3 465
3
3 136
3 522 880
3
3
3
3
3 587
3 346 508 919
3 112 348 435 680 692 707
3 154 175 193 279 320
3 475 546 824 847
3 688
3 194
3
3
3 412
3 125 370 459 670 844
3
3
3
3 564
3
3 254
3
3
3
3
3 856
3
3 870
3
3
3
3 962
3 468
3
3 765
3 447
3 363 750
3
3 321 367 755
3
3
3
3 648
3 177 590
3 327
3
3
3 349
3 270 273 364 711 772 804
3
3
3
3
3 261 637
3
3
3 856
3 154 543 751 839
3 202 878
3
3
3 421
3
3
3 175 745 835
3 836 998
3
3
3
3 204
3 397
3 934
3
3
3 468 842 962
3 459 609
3 816
3
3
3
3 894
3 894
3
3
3
3 601
3
3
3 204
3
3 404
3
3
3 604 736
3 928
3 100 138 228 566 910 940 962
3
3 204 601
3
3 559 774
3
3
3
3
3 539
3 421 426
3 202
3 109
3
3
3 776
3
3 348 601 734
3
3
3 190
3 643
3
3
3 214
3
3
3
3
3
3
3 108 157 348 393 518
3 369
3
3
3
3
3 578
3
3
3 528
3 734
3
3
3 112 121 169 348 435 707 731 764 850
3
3 124 688 937
3 275
3
3
3 880
3
3
3
3
3 456 659 835
3 801
3
3 852
3
3 631
3 154 354 652 839
3 779 887
3
3 306
3 633
3
3 153
3
3
3
3 242
3
3
3 734
3 629
3
3
3
3
3
3
3 643
3
3 357 694
3
3 705
3
3 123 464
3 557 752 887
3 894
3
3 512 850
3
3
3 522
3 111
3
3 844
3 414 541
3
3 202 878
3
3
3
3
3
3
3
3
3 512
3 344 746 895
3
3 829
3 270 643
3
3
3
3 136 191 560
3 581
3
3 149
3 270 429
3 919 988
3
3 857
3 671
3
3
3 401
3
3
3
3 455
3 144 475 603 847
3
3
3
3
3 803 840
3 407
3 493
3
3
3
3 175 279 320 659 745
3 509 660 921
3 160 573
3
3 354 420 652 751
3 477 829
3
3 240 398 669
3
3 609 788
3
3 171
3 144 603 824
3 462
3 169 866
3 108 112 392 549 586 734 782
3 524
3 748
3
3 109
3
3 212 620 651 948
3 815
3
3
3 558 918
3
3
3
3 213
3
3 108 169 435 548 549 849 869
3
3 295 323 566
3 169 866
3 622
3
3
3
3
3 153 205 543
3
3 204 929
3 202 653 791
3 486
3 594 740
3 407 516
3
3
3 447
3
3 131
3 752 779
3
3 291 415
3
3 404
3
3 399
3 156 303 335 347 351 423 675 676 780 993 997
3 801
3
3
3
3 174
3
3
3
3
3
3
3 135
3 115 362
3
3
3 228 690
3
3
3 228
3
3 399
3 579
3
3 860
3 600 813
3 453
3 836
3
3 149
3 227
3
3
3 359
3 689
3 877
3
3
3
3
3 666
3 180
3
3 736
3
3
3 100 138 690
3 964
3
3
3 189
3
3
3
3 856
3
3
3
3
3
3
3
3
3
3 476
3 105
3
3
3 100 138 468 626 669 690
3
3 167 941
3 371
3 372 573
3
3 290
3 145
3 524
3
3
3
3
3
3 283
3
3 176 482
3
3
3
3
3
3
3
3
3
3 813
3
3
3
3
3 894
3
3
3
3 894
3 660
3
